solution status: optimal solution found
objective value:                     160231.123765304
d11(0,0)                                            1 	(obj:0)
d11(1,1)                                            1 	(obj:0)
d11(2,3)                                            1 	(obj:0)
d11(2,4)                                            1 	(obj:0)
d11(2,5)                                            1 	(obj:0)
d11(2,6)                                            1 	(obj:0)
d11(3,7)                                            1 	(obj:0)
d11(3,9)                                            1 	(obj:0)
d11(3,13)                                           1 	(obj:0)
d12(3,8)                                            1 	(obj:0)
d12(3,10)                                           1 	(obj:0)
d12(3,12)                                           1 	(obj:0)
d12(3,14)                                           1 	(obj:0)
d21(2,3)                                            1 	(obj:0)
d21(3,7)                                            1 	(obj:0)
d21(3,8)                                            1 	(obj:0)
d21(3,9)                                            1 	(obj:0)
y2(3,8)                              1385.48851144895 	(obj:0)
y2(3,10)                             1385.48851144895 	(obj:0)
y2(3,12)                             1385.48851144895 	(obj:0)
y2(3,14)                             1385.48851144898 	(obj:0)
STE(1,1)                             9933.75010111115 	(obj:0)
STE(0,0)                                        12600 	(obj:0)
STE(1,2)                                        11592 	(obj:0)
STE(2,3)                             1869.75010111056 	(obj:0)
STE(2,4)                             3527.99999999938 	(obj:0)
STE(2,5)                             3527.99999999941 	(obj:0)
STE(2,6)                             5186.24989888823 	(obj:0)
STE(3,7)                             861.750101110565 	(obj:0)
STE(3,8)                             2177.96418698707 	(obj:0)
STE(3,9)                             2519.99999999944 	(obj:0)
STE(3,10)                            3836.21408587588 	(obj:0)
STE(3,11)                                        2520 	(obj:0)
STE(3,12)                            3836.21408587591 	(obj:0)
STE(3,13)                            4178.24989888823 	(obj:0)
STE(3,14)                            5494.46398476476 	(obj:0)
AVE(2)                               3315.65537776224 	(obj:0)
WB(3)                                3315.65799770399 	(obj:0)
y1(1,1)                              1492.42490899996 	(obj:0)
y1(2,3)                              6350.40000000053 	(obj:0)
y1(2,4)                               4857.9750910006 	(obj:0)
y1(2,5)                              6350.40000000053 	(obj:0)
y1(2,6)                               4857.9750910006 	(obj:0)
AVE(3)                               3315.65799770399 	(obj:0)
WB(1)                                3248.33172520918 	(obj:0)
WG(2)                                3315.65537776224 	(obj:10)
BG(1)                                4196.29249897959 	(obj:10)
BG(2)                                5837.75456101385 	(obj:10)
BG(3)                                2673.40993877527 	(obj:10)
AVE(1)                               3248.33172520918 	(obj:0)
